Ge
 1.0000000000000000
     0.0000000000000000    2.8399391653526300    2.8399391653526300
     2.8399391653526300    0.0000000000000000    2.8399391653526300
     2.8399391653526300    2.8399391653526300    0.0000000000000000
 Ge
   2
Direct
  0.5000000000000000  0.5000000000000000  0.5000000000000000
  0.7500000000000000  0.7500000000000000  0.7500000000000000
Cartesian
  0.0000000000000000  0.0000000000000000  0.0000000000000000
  0.0000000000000000  0.0000000000000000  0.0000000000000000
