POSCAR                                  
   1.00000000000000     
     5.6798783307052592    0.0000000000000000    0.0000000000000000
     0.0000000000000000    5.6798783307052592    0.0000000000000000
     0.0000000000000000    0.0000000000000000    5.6798783307052592
   Ge
     8
Selective dynamics
Direct
 -0.0000000000000000 -0.0000000000000000 -0.0000000000000000   T   T   T
 -0.0000000000000000  0.4999999991312336  0.4999999991312336   T   T   T
  0.4999999991312336  0.4999999991312336 -0.0000000000000000   T   T   T
  0.4999999991312336  0.0000000000000000  0.4999999991312336   T   T   T
  0.7499999986968504  0.2499999995656168  0.7499999986968504   T   T   T
  0.2499999995656168  0.2499999995656168  0.2499999995656168   T   T   T
  0.2499999995656168  0.7499999986968504  0.7499999986968504   T   T   T
  0.7499999986968504  0.7499999986968504  0.2499999995656168   T   T   T
 
  0.00000000E+00  0.00000000E+00  0.00000000E+00
  0.00000000E+00  0.00000000E+00  0.00000000E+00
  0.00000000E+00  0.00000000E+00  0.00000000E+00
  0.00000000E+00  0.00000000E+00  0.00000000E+00
  0.00000000E+00  0.00000000E+00  0.00000000E+00
  0.00000000E+00  0.00000000E+00  0.00000000E+00
  0.00000000E+00  0.00000000E+00  0.00000000E+00
  0.00000000E+00  0.00000000E+00  0.00000000E+00
